CMPL model generation - running

CMPL version: 1.11.0
Authors: Thomas Schleiff, Mike Steglich
Distributed under the GPLv3 

create model instance ...
write model instance ...
CMPL model generation - finished

Solver - running


Welcome to IBM(R) ILOG(R) CPLEX(R) Interactive Optimizer 12.7.1.0
  with Simplex, Mixed Integer & Barrier Optimizers
5725-A06 5725-A29 5724-Y48 5724-Y49 5724-Y54 5724-Y55 5655-Y21
Copyright IBM Corp. 1988, 2017.  All Rights Reserved.

Type 'help' for a list of available commands.
Type 'help' followed by a command name for more
information on commands.

CPLEX> Specified objective sense: MINIMIZE
Selected objective  name:  line[1]
Selected RHS        name:  RHS
Selected bound      name:  BOUND
Problem '/tmp/cmpl.T24165.mps' read.
Read time = 0.07 sec. (10.12 ticks)
CPLEX> CPXPARAM_Read_APIEncoding                        "UTF-8"
Tried aggregator 3 times.
MIP Presolve eliminated 23984 rows and 37541 columns.
MIP Presolve modified 425 coefficients.
Aggregator did 780 substitutions.
Reduced MIP has 3158 rows, 4134 columns, and 12230 nonzeros.
Reduced MIP has 3924 binaries, 0 generals, 0 SOSs, and 0 indicators.
Presolve time = 0.07 sec. (50.28 ticks)
Found incumbent of value 999.233686 after 0.13 sec. (78.54 ticks)
Probing fixed 10 vars, tightened 0 bounds.
Probing time = 0.01 sec. (5.37 ticks)
Tried aggregator 1 time.
MIP Presolve eliminated 0 rows and 10 columns.
MIP Presolve modified 52 coefficients.
Reduced MIP has 3158 rows, 4124 columns, and 12210 nonzeros.
Reduced MIP has 4124 binaries, 0 generals, 0 SOSs, and 0 indicators.
Presolve time = 0.01 sec. (10.26 ticks)
Probing time = 0.01 sec. (2.85 ticks)
Clique table members: 7436.
MIP emphasis: balance optimality and feasibility.
MIP search method: dynamic search.
Parallel mode: none, using 1 thread.
Root relaxation solution time = 0.01 sec. (6.38 ticks)

        Nodes                                         Cuts/
   Node  Left     Objective  IInf  Best Integer    Best Bound    ItCnt     Gap

*     0+    0                          999.2337      -26.2052           102.62%
      0     0      236.0229    10      999.2337      236.0229      201   76.38%
*     0+    0                          236.2515      236.0229             0.10%
      0     0      236.2227     2      236.2515      Cuts: 18      213    0.01%
*     0     0      integral     0      236.2239       Cuts: 8      224    0.00%
      0     0        cutoff            236.2239      236.2239      224    0.00%
Elapsed time = 0.22 sec. (140.00 ticks, tree = 0.01 MB, solutions = 3)

GUB cover cuts applied:  1
Clique cuts applied:  2
Cover cuts applied:  15
Gomory fractional cuts applied:  8

Root node processing (before b&c):
  Real time             =    0.22 sec. (141.83 ticks)
Sequential b&c:
  Real time             =    0.00 sec. (0.00 ticks)
                          ------------
Total (root+branch&cut) =    0.22 sec. (141.83 ticks)

Solution pool: 3 solutions saved.

MIP - Integer optimal solution:  Objective =  2.3622392300e+02
Solution time =    0.22 sec.  Iterations = 224  Nodes = 0
Deterministic time = 141.95 ticks  (646.10 ticks/sec)

CPLEX> Incumbent solution written to file '/tmp/cmpl.T24165.gsol'.
CPLEX> 
CMPL: Time used for model generation: 1 seconds
CMPL: Time used for solving the model: 1 seconds


Solution written to ASCII file: results/output_generated_conf_0.5/2016-10-03-5/fair-nonlinear.sol

Solver - finished
